p tw 40 84
0 1
0 2
1 9
1 18
1 17
1 4
2 33
2 7
2 22
2 19
2 38
3 4
4 16
4 21
4 35
4 5
5 6
5 13
5 14
5 31
5 18
5 20
6 17
6 22
6 29
6 9
7 8
7 33
7 37
8 18
8 26
8 12
8 29
8 16
8 10
9 10
9 26
10 22
10 39
11 12
11 15
11 32
11 17
11 13
12 26
12 38
12 23
12 16
12 33
13 28
13 20
14 19
14 37
15 27
15 24
15 20
15 34
16 25
16 35
16 37
17 27
18 23
18 29
19 26
19 28
19 20
19 25
20 21
20 22
20 25
21 32
21 30
21 23
21 33
22 29
22 24
23 24
23 32
24 34
26 28
26 27
28 30
29 31
29 36
